benchmark_str_length/p1_10_4-3.dzn
Alphabet = {A,C,G,T};
ns = 10;
nc = 4;
sl = 10;
neighbours = [| I(A),I(A),I(C),I(A) | I(A),I(C),I(A),I(A) | I(A),I(A),I(A),I(A) | I(A),I(A),I(A),I(A) | I(C),I(C),I(A),I(A) | I(A),I(A),I(C),I(C) | I(A),I(C),I(A),I(C) | I(A),I(A),I(A),I(A) | I(A),I(C),I(A),I(A) | I(A),I(A),I(A),I(C) |];
