benchmark_str_length/p1_10_4-3.txt
{
	"num_strings": 10,
	"alphabet": "ACGT",
	"strings": [
		"AACA",
		"ACAA",
		"AAAA",
		"AAAA",
		"CCAA",
		"AACC",
		"ACAC",
		"AAAA",
		"ACAA",
		"AAAC"
	],
	"str_length":[4,4,4,4,4,4,4,4,4,4]
}